187070
2
7
8
21
25
1
75
0
22
23
24
46
45
68
70
69
47
48
44
30
29
26
27
28
43
42
54
53
52
51
50
49
10
9
32
33
67
12
11
17
37
18
16
15
40
34
35
36
38
39
55
56
57
58
60
41
59
61
62
63
64
71
72
73
65
66
4
3
6
5
20
19
31
13
14
74
